%nprocs=1
%mem=1gb
#p NONEXISTENT_METHOD/STO-3G SP

H2 bad route

0 1
H  0.000  0.000  0.000
H  0.000  0.000  0.740

