%nprocs=1
%mem=1gb
#p HF/STO-3G SP

H2 single point

0 1
H  0.000  0.000  0.000
H  0.000  0.000  0.740

