%nprocs=1
%mem=1gb
#p HF/STO-3G Opt

H2O optimization

0 1
O   0.0000   0.0000   0.1173
H   0.0000   0.7572  -0.4692
H   0.0000  -0.7572  -0.4692

